c clasp version 2.1.1
c Reading from pb_200_05.cnf
c Solving...
s UNSATISFIABLE

c Models        : 0     
c Time          : 203.574s (Solving: 202.87s 1st Model: 0.00s Unsat: 202.87s)
c CPU Time      : 203.240s
c Choices       : 1495030
c Conflicts     : 752512
c Restarts      : 688    (Average: 1093.77 Last: 6521)

c Variables     : 195146 (Eliminated: 60341 Frozen:    0)
c Constraints   : 215172 (Binary: 65.8% Ternary: 32.8% Other:  1.4%)
c Lemmas        : 752511 (Binary:  0.2% Ternary:  0.1% Other: 99.7%)
c   Conflict    : 752511 (Average Length: 53.2) 
c   Loop        : 0      (Average Length: 0.0) 
c   Other       : 0      (Average Length: 0.0)
c   Deleted     : 703273
